DIMENSION: 9
EDGE_WEIGHT_TYPE: EXPLICIT
EDGE_WEIGHT_FORMAT: FULL_MATRIX
EDGE_WEIGHT_SECTION:
32767 26 32767 41 32767 69 19 83 81 
26 32767 64 22 79 25 59 49 38 
32767 64 32767 8 32767 86 12 98 46 
41 22 8 32767 4 17 63 68 73 
32767 79 32767 4 32767 32 40 7 72 
69 25 86 17 32 32767 24 45 57 
19 59 12 63 40 24 32767 43 8 
83 49 98 68 7 45 43 32767 53 
81 38 46 73 72 57 8 53 32767 
EOF